1000 1002
8 8
293 324 12 136 11 68 18 57 
182 74 196 234 70 97 15 122 
14 82 79 214 214 117 60 191 
109 29 173 17 102 209 83 205 
36 125 150 82 126 267 60 79 
194 222 20 146 15 1 182 207 
2 12 55 32 318 55 430 36 
170 116 261 81 99 104 66 3 
